% seed = 8776640

mint = 51;
% maxt = 206;

nActs = 42;
dur = [0,9,1,7,7,4,6,8,3,9,4,5,10,6,2,2,8,2,8,9,6,1,5,7,10,2,6,3,2,9,2,6,5,2,2,5,1,4,7,6,5,0];

nSkills = 4;
sreq = [| 0,0,0,0,
	| 6,0,6,0,
	| 3,0,4,0,
	| 0,0,3,3,
	| 4,0,4,0,
	| 0,2,5,0,
	| 4,0,0,1,
	| 3,0,0,5,
	| 0,0,2,2,
	| 0,0,5,2,
	| 7,1,0,0,
	| 2,2,0,0,
	| 0,7,3,0,
	| 0,5,7,0,
	| 0,7,5,0,
	| 1,0,0,7,
	| 4,4,0,0,
	| 3,7,0,0,
	| 3,0,7,0,
	| 0,4,0,3,
	| 0,0,4,2,
	| 5,0,4,0,
	| 0,5,0,4,
	| 0,7,3,0,
	| 5,0,0,5,
	| 0,0,4,5,
	| 6,0,0,5,
	| 2,0,2,0,
	| 0,1,4,0,
	| 0,3,3,0,
	| 0,0,3,5,
	| 0,0,5,4,
	| 0,0,5,4,
	| 0,2,0,3,
	| 3,0,4,0,
	| 3,0,0,7,
	| 0,5,5,0,
	| 4,0,1,0,
	| 0,3,0,6,
	| 0,0,4,6,
	| 3,0,0,3,
	| 0,0,0,0, |];

nResources = 20;
mastery = [| false,true,true,true,
	| false,true,true,true,
	| false,true,true,false,
	| true,false,false,true,
	| true,false,false,false,
	| true,false,false,false,
	| false,true,true,false,
	| false,true,false,false,
	| true,true,false,true,
	| true,false,false,false,
	| false,false,false,true,
	| true,false,true,true,
	| false,true,true,true,
	| false,false,true,false,
	| false,false,true,false,
	| false,false,true,true,
	| true,true,false,false,
	| true,false,true,false,
	| false,true,true,false,
	| false,true,false,false, |];

nPrecs = 73;
pred = [1,1,1,2,2,2,3,3,3,4,4,4,5,5,6,6,6,7,7,8,8,9,9,9,10,10,10,11,11,11,12,12,13,14,14,14,15,16,17,17,17,18,18,18,19,20,20,21,21,22,23,23,24,24,25,25,26,27,27,28,29,30,31,32,33,34,35,36,37,38,39,40,41];
succ = [2,3,4,10,38,24,5,7,8,9,6,15,29,13,18,26,16,18,12,19,28,17,11,32,20,14,22,12,29,40,36,28,23,17,26,31,29,40,21,30,39,25,36,31,25,36,32,33,34,28,27,38,25,37,41,34,27,33,35,35,33,35,37,34,37,40,41,41,39,39,42,42,42];

nUnrels = 513;
unpred = [2,2,2,2,2,2,2,2,2,2,2,2,2,2,2,2,3,3,3,3,3,3,3,3,3,3,3,3,3,3,3,3,4,4,4,4,4,4,4,4,4,4,4,4,5,5,5,5,5,5,5,5,5,5,5,5,5,5,5,5,5,5,5,5,5,5,5,5,5,5,6,6,6,6,6,6,6,6,6,6,6,6,6,6,6,6,6,6,6,6,6,7,7,7,7,7,7,7,7,7,7,7,7,7,7,7,7,7,7,7,7,7,7,8,8,8,8,8,8,8,8,8,8,8,8,8,8,8,8,8,8,8,8,8,8,8,8,8,8,9,9,9,9,9,9,9,9,9,9,9,9,9,9,9,9,10,10,10,10,10,10,10,10,10,10,10,10,11,11,11,11,11,11,11,11,11,11,11,11,11,11,11,11,11,11,11,11,12,12,12,12,12,12,12,12,12,12,12,12,12,12,12,12,12,12,12,12,12,12,12,12,12,13,13,13,13,13,13,13,13,13,13,13,13,13,13,13,13,13,13,13,13,14,14,14,14,14,14,14,14,14,14,14,14,14,14,15,15,15,15,15,15,15,15,15,15,15,15,15,15,15,15,15,15,15,15,15,15,16,16,16,16,16,16,16,16,16,16,16,16,16,16,16,16,16,16,16,16,16,16,16,16,17,17,17,17,17,17,17,17,17,17,17,17,17,17,17,18,18,18,18,18,18,18,18,18,18,18,18,18,18,18,19,19,19,19,19,19,19,19,19,19,19,19,19,19,19,19,19,19,20,20,20,20,20,20,20,20,20,20,20,20,20,20,20,20,21,21,21,21,21,21,21,21,21,21,21,21,21,21,21,22,22,22,22,22,22,22,22,22,22,22,22,22,22,22,22,23,23,23,23,23,23,23,23,23,23,23,24,24,24,24,24,24,24,24,24,24,24,25,25,25,25,25,25,25,25,25,25,25,25,25,26,26,26,26,26,26,26,26,26,27,27,27,27,27,27,27,27,27,28,28,28,28,28,28,28,28,28,28,28,29,29,29,29,29,29,29,29,29,30,30,30,30,30,30,30,30,30,31,31,31,31,31,31,31,31,32,32,32,32,32,32,32,33,33,33,33,33,33,34,34,34,34,34,34,35,35,35,35,35,36,36,36,36,37,37,37,38,38,39,39,40];
unsucc = [3,4,5,6,7,8,9,11,12,13,15,16,18,19,23,29,4,6,9,10,11,14,15,16,17,20,21,22,24,26,30,32,5,7,8,10,13,14,19,20,22,23,24,38,6,7,8,9,10,11,12,14,15,16,17,18,19,20,21,22,24,25,26,28,30,31,32,34,36,40,7,8,9,10,11,12,13,14,15,17,19,20,21,22,23,24,28,29,30,32,38,8,9,10,11,13,14,15,16,17,19,20,21,22,23,24,26,27,29,30,32,33,38,9,10,11,12,13,14,15,16,17,18,20,21,22,23,24,26,27,29,30,31,32,33,36,37,38,39,10,13,14,15,16,18,19,20,22,23,24,25,26,27,31,38,11,12,13,15,16,18,19,23,24,25,29,38,13,14,15,16,17,18,19,20,21,22,23,24,25,26,27,30,31,32,34,38,13,14,15,16,17,18,19,20,21,22,23,24,25,26,27,29,30,31,32,33,34,37,38,39,40,14,15,16,17,18,19,20,21,22,24,25,26,28,29,30,31,32,34,36,40,15,16,18,19,20,22,23,24,25,28,29,32,36,38,16,17,18,19,20,21,22,23,24,25,26,27,28,30,31,32,34,35,36,38,40,41,17,18,19,20,21,22,23,24,25,26,27,28,29,30,31,32,33,34,35,36,37,38,39,41,18,19,20,22,23,24,25,26,27,28,29,31,32,36,38,19,20,21,22,23,24,26,27,28,29,30,32,33,35,38,20,21,22,23,24,26,27,28,29,30,31,32,33,35,36,37,38,39,21,22,23,24,25,26,27,28,29,30,31,33,35,37,38,39,22,23,24,25,26,27,28,29,30,31,32,35,36,38,41,23,24,25,26,27,29,30,31,32,33,34,36,37,38,39,40,24,25,26,28,29,30,31,32,34,36,40,26,27,28,29,30,31,32,33,35,36,38,26,27,28,29,30,31,32,33,35,36,37,38,39,28,29,30,31,32,34,36,38,40,28,29,30,31,32,34,36,38,40,29,30,31,32,33,34,36,37,38,39,40,30,31,32,34,35,36,38,40,41,31,32,33,34,36,37,38,39,40,32,33,34,35,36,38,40,41,33,35,36,37,38,39,41,34,35,36,38,40,41,35,36,37,38,39,41,36,37,38,39,40,37,38,39,40,38,40,41,40,41,40,41,41];

USEFUL_RES = [{},
	{1,2,3,4,5,6,7,9,10,12,13,14,15,16,17,18,19},
	{1,2,3,4,5,6,7,9,10,12,13,14,15,16,17,18,19},
	{1,2,3,4,7,9,11,12,13,14,15,16,18,19},
	{1,2,3,4,5,6,7,9,10,12,13,14,15,16,17,18,19},
	{1,2,3,7,8,9,12,13,14,15,16,17,18,19,20},
	{1,2,4,5,6,9,10,11,12,13,16,17,18},
	{1,2,4,5,6,9,10,11,12,13,16,17,18},
	{1,2,3,4,7,9,11,12,13,14,15,16,18,19},
	{1,2,3,4,7,9,11,12,13,14,15,16,18,19},
	{1,2,3,4,5,6,7,8,9,10,12,13,17,18,19,20},
	{1,2,3,4,5,6,7,8,9,10,12,13,17,18,19,20},
	{1,2,3,7,8,9,12,13,14,15,16,17,18,19,20},
	{1,2,3,7,8,9,12,13,14,15,16,17,18,19,20},
	{1,2,3,7,8,9,12,13,14,15,16,17,18,19,20},
	{1,2,4,5,6,9,10,11,12,13,16,17,18},
	{1,2,3,4,5,6,7,8,9,10,12,13,17,18,19,20},
	{1,2,3,4,5,6,7,8,9,10,12,13,17,18,19,20},
	{1,2,3,4,5,6,7,9,10,12,13,14,15,16,17,18,19},
	{1,2,3,4,7,8,9,11,12,13,16,17,19,20},
	{1,2,3,4,7,9,11,12,13,14,15,16,18,19},
	{1,2,3,4,5,6,7,9,10,12,13,14,15,16,17,18,19},
	{1,2,3,4,7,8,9,11,12,13,16,17,19,20},
	{1,2,3,7,8,9,12,13,14,15,16,17,18,19,20},
	{1,2,4,5,6,9,10,11,12,13,16,17,18},
	{1,2,3,4,7,9,11,12,13,14,15,16,18,19},
	{1,2,4,5,6,9,10,11,12,13,16,17,18},
	{1,2,3,4,5,6,7,9,10,12,13,14,15,16,17,18,19},
	{1,2,3,7,8,9,12,13,14,15,16,17,18,19,20},
	{1,2,3,7,8,9,12,13,14,15,16,17,18,19,20},
	{1,2,3,4,7,9,11,12,13,14,15,16,18,19},
	{1,2,3,4,7,9,11,12,13,14,15,16,18,19},
	{1,2,3,4,7,9,11,12,13,14,15,16,18,19},
	{1,2,3,4,7,8,9,11,12,13,16,17,19,20},
	{1,2,3,4,5,6,7,9,10,12,13,14,15,16,17,18,19},
	{1,2,4,5,6,9,10,11,12,13,16,17,18},
	{1,2,3,7,8,9,12,13,14,15,16,17,18,19,20},
	{1,2,3,4,5,6,7,9,10,12,13,14,15,16,17,18,19},
	{1,2,3,4,7,8,9,11,12,13,16,17,19,20},
	{1,2,3,4,7,9,11,12,13,14,15,16,18,19},
	{1,2,4,5,6,9,10,11,12,13,16,17,18},
	{}];

POTENTIAL_ACT = [{2,3,4,5,6,7,8,9,10,11,12,13,14,15,16,17,18,19,20,21,22,23,24,25,26,27,28,29,30,31,32,33,34,35,36,37,38,39,40,41},
	{2,3,4,5,6,7,8,9,10,11,12,13,14,15,16,17,18,19,20,21,22,23,24,25,26,27,28,29,30,31,32,33,34,35,36,37,38,39,40,41},
	{2,3,4,5,6,9,10,11,12,13,14,15,17,18,19,20,21,22,23,24,26,28,29,30,31,32,33,34,35,37,38,39,40},
	{2,3,4,5,7,8,9,10,11,12,16,17,18,19,20,21,22,23,25,26,27,28,31,32,33,34,35,36,38,39,40,41},
	{2,3,5,7,8,11,12,16,17,18,19,22,25,27,28,35,36,38,41},
	{2,3,5,7,8,11,12,16,17,18,19,22,25,27,28,35,36,38,41},
	{2,3,4,5,6,9,10,11,12,13,14,15,17,18,19,20,21,22,23,24,26,28,29,30,31,32,33,34,35,37,38,39,40},
	{6,11,12,13,14,15,17,18,20,23,24,29,30,34,37,39},
	{2,3,4,5,6,7,8,9,10,11,12,13,14,15,16,17,18,19,20,21,22,23,24,25,26,27,28,29,30,31,32,33,34,35,36,37,38,39,40,41},
	{2,3,5,7,8,11,12,16,17,18,19,22,25,27,28,35,36,38,41},
	{4,7,8,9,10,16,20,21,23,25,26,27,31,32,33,34,36,39,40,41},
	{2,3,4,5,6,7,8,9,10,11,12,13,14,15,16,17,18,19,20,21,22,23,24,25,26,27,28,29,30,31,32,33,34,35,36,37,38,39,40,41},
	{2,3,4,5,6,7,8,9,10,11,12,13,14,15,16,17,18,19,20,21,22,23,24,25,26,27,28,29,30,31,32,33,34,35,36,37,38,39,40,41},
	{2,3,4,5,6,9,10,13,14,15,19,21,22,24,26,28,29,30,31,32,33,35,37,38,40},
	{2,3,4,5,6,9,10,13,14,15,19,21,22,24,26,28,29,30,31,32,33,35,37,38,40},
	{2,3,4,5,6,7,8,9,10,13,14,15,16,19,20,21,22,23,24,25,26,27,28,29,30,31,32,33,34,35,36,37,38,39,40,41},
	{2,3,5,6,7,8,11,12,13,14,15,16,17,18,19,20,22,23,24,25,27,28,29,30,34,35,36,37,38,39,41},
	{2,3,4,5,6,7,8,9,10,11,12,13,14,15,16,17,18,19,21,22,24,25,26,27,28,29,30,31,32,33,35,36,37,38,40,41},
	{2,3,4,5,6,9,10,11,12,13,14,15,17,18,19,20,21,22,23,24,26,28,29,30,31,32,33,34,35,37,38,39,40},
	{6,11,12,13,14,15,17,18,20,23,24,29,30,34,37,39}];
